50
1 0 75
2 0 23
2 1 81
3 0 99
3 1 8
3 2 18
4 0 68
4 1 24
4 2 53
4 3 30
5 0 3
5 1 74
5 2 63
5 3 39
5 4 88
6 0 44
6 1 99
6 2 50
6 3 15
6 4 35
6 5 24
7 0 25
7 1 79
7 2 32
7 3 86
7 4 77
7 5 98
7 6 31
8 0 62
8 1 100
8 2 94
8 3 26
8 4 98
8 5 39
8 6 19
8 7 39
9 0 72
9 1 19
9 2 28
9 3 63
9 4 63
9 5 82
9 6 35
9 7 37
9 8 4
10 0 14
10 1 99
10 2 93
10 3 46
10 4 43
10 5 26
10 6 23
10 7 72
10 8 55
10 9 86
11 0 68
11 1 32
11 2 55
11 3 85
11 4 28
11 5 85
11 6 62
11 7 38
11 8 41
11 9 72
11 10 32
12 0 25
12 1 78
12 2 62
12 3 27
12 4 37
12 5 51
12 6 30
12 7 93
12 8 47
12 9 48
12 10 71
12 11 100
13 0 43
13 1 14
13 2 68
13 3 67
13 4 29
13 5 65
13 6 40
13 7 73
13 8 78
13 9 94
13 10 57
13 11 25
13 12 75
14 0 5
14 1 4
14 2 31
14 3 7
14 4 91
14 5 16
14 6 6
14 7 78
14 8 34
14 9 22
14 10 7
14 11 49
14 12 100
14 13 69
15 0 68
15 1 47
15 2 50
15 3 22
15 4 95
15 5 80
15 6 94
15 7 46
15 8 25
15 9 54
15 10 63
15 11 28
15 12 75
15 13 83
15 14 70
16 0 92
16 1 20
16 2 39
16 3 81
16 4 8
16 5 92
16 6 77
16 7 27
16 8 18
16 9 75
16 10 33
16 11 28
16 12 1
16 13 43
16 14 89
16 15 1
17 0 69
17 1 76
17 2 42
17 3 73
17 4 71
17 5 28
17 6 22
17 7 34
17 8 27
17 9 51
17 10 52
17 11 92
17 12 38
17 13 100
17 14 50
17 15 6
17 16 30
18 0 62
18 1 91
18 2 32
18 3 37
18 4 83
18 5 13
18 6 88
18 7 33
18 8 100
18 9 11
18 10 22
18 11 53
18 12 91
18 13 50
18 14 67
18 15 80
18 16 100
18 17 28
19 0 75
19 1 82
19 2 8
19 3 14
19 4 95
19 5 19
19 6 45
19 7 87
19 8 35
19 9 68
19 10 76
19 11 35
19 12 3
19 13 23
19 14 100
19 15 81
19 16 32
19 17 74
19 18 41
20 0 67
20 1 38
20 2 69
20 3 33
20 4 89
20 5 61
20 6 20
20 7 10
20 8 79
20 9 73
20 10 3
20 11 68
20 12 78
20 13 79
20 14 54
20 15 59
20 16 33
20 17 32
20 18 77
20 19 17
21 0 23
21 1 33
21 2 2
21 3 55
21 4 98
21 5 95
21 6 71
21 7 52
21 8 81
21 9 90
21 10 34
21 11 39
21 12 61
21 13 12
21 14 77
21 15 54
21 16 92
21 17 10
21 18 24
21 19 8
21 20 70
22 0 97
22 1 81
22 2 100
22 3 39
22 4 18
22 5 19
22 6 62
22 7 73
22 8 41
22 9 99
22 10 30
22 11 17
22 12 15
22 13 100
22 14 60
22 15 91
22 16 89
22 17 9
22 18 50
22 19 80
22 20 97
22 21 59
23 0 27
23 1 83
23 2 50
23 3 47
23 4 14
23 5 84
23 6 2
23 7 61
23 8 79
23 9 52
23 10 62
23 11 92
23 12 45
23 13 14
23 14 73
23 15 25
23 16 99
23 17 37
23 18 95
23 19 11
23 20 33
23 21 12
23 22 48
24 0 90
24 1 19
24 2 45
24 3 8
24 4 2
24 5 72
24 6 72
24 7 59
24 8 4
24 9 75
24 10 76
24 11 43
24 12 93
24 13 74
24 14 56
24 15 71
24 16 88
24 17 49
24 18 84
24 19 74
24 20 36
24 21 24
24 22 62
24 23 14
25 0 30
25 1 86
25 2 29
25 3 86
25 4 64
25 5 10
25 6 22
25 7 70
25 8 57
25 9 12
25 10 66
25 11 28
25 12 35
25 13 91
25 14 51
25 15 46
25 16 30
25 17 11
25 18 27
25 19 73
25 20 45
25 21 49
25 22 18
25 23 96
25 24 16
26 0 10
26 1 42
26 2 63
26 3 28
26 4 71
26 5 80
26 6 42
26 7 96
26 8 23
26 9 44
26 10 69
26 11 17
26 12 14
26 13 25
26 14 37
26 15 36
26 16 6
26 17 23
26 18 18
26 19 1
26 20 11
26 21 93
26 22 24
26 23 93
26 24 63
26 25 61
27 0 48
27 1 43
27 2 44
27 3 92
27 4 42
27 5 100
27 6 64
27 7 9
27 8 26
27 9 89
27 10 69
27 11 99
27 12 27
27 13 74
27 14 28
27 15 58
27 16 96
27 17 34
27 18 14
27 19 58
27 20 59
27 21 97
27 22 100
27 23 40
27 24 87
27 25 94
27 26 7
28 0 55
28 1 3
28 2 37
28 3 98
28 4 28
28 5 51
28 6 23
28 7 97
28 8 100
28 9 1
28 10 28
28 11 66
28 12 72
28 13 66
28 14 33
28 15 98
28 16 75
28 17 52
28 18 96
28 19 78
28 20 19
28 21 62
28 22 73
28 23 29
28 24 1
28 25 42
28 26 45
28 27 61
29 0 83
29 1 18
29 2 100
29 3 71
29 4 63
29 5 73
29 6 82
29 7 67
29 8 96
29 9 76
29 10 9
29 11 20
29 12 52
29 13 30
29 14 13
29 15 59
29 16 2
29 17 32
29 18 63
29 19 69
29 20 75
29 21 49
29 22 68
29 23 54
29 24 37
29 25 45
29 26 74
29 27 73
29 28 70
30 0 30
30 1 100
30 2 70
30 3 56
30 4 10
30 5 84
30 6 45
30 7 100
30 8 46
30 9 17
30 10 39
30 11 42
30 12 66
30 13 6
30 14 40
30 15 45
30 16 93
30 17 85
30 18 20
30 19 55
30 20 60
30 21 58
30 22 68
30 23 72
30 24 45
30 25 60
30 26 77
30 27 77
30 28 42
30 29 52
31 0 94
31 1 11
31 2 45
31 3 98
31 4 59
31 5 88
31 6 22
31 7 86
31 8 68
31 9 100
31 10 97
31 11 90
31 12 47
31 13 39
31 14 61
31 15 89
31 16 37
31 17 44
31 18 4
31 19 79
31 20 97
31 21 57
31 22 15
31 23 64
31 24 96
31 25 33
31 26 99
31 27 94
31 28 50
31 29 46
31 30 16
32 0 88
32 1 17
32 2 84
32 3 25
32 4 71
32 5 54
32 6 24
32 7 11
32 8 7
32 9 13
32 10 38
32 11 4
32 12 97
32 13 27
32 14 52
32 15 32
32 16 91
32 17 87
32 18 79
32 19 63
32 20 27
32 21 50
32 22 95
32 23 31
32 24 86
32 25 8
32 26 12
32 27 45
32 28 38
32 29 2
32 30 87
32 31 33
33 0 18
33 1 79
33 2 59
33 3 69
33 4 49
33 5 10
33 6 17
33 7 70
33 8 2
33 9 30
33 10 17
33 11 91
33 12 73
33 13 57
33 14 23
33 15 24
33 16 98
33 17 3
33 18 33
33 19 2
33 20 49
33 21 96
33 22 10
33 23 48
33 24 76
33 25 58
33 26 38
33 27 28
33 28 94
33 29 23
33 30 66
33 31 4
33 32 25
34 0 76
34 1 7
34 2 74
34 3 39
34 4 62
34 5 17
34 6 76
34 7 70
34 8 85
34 9 66
34 10 63
34 11 85
34 12 1
34 13 67
34 14 98
34 15 38
34 16 73
34 17 34
34 18 19
34 19 42
34 20 42
34 21 84
34 22 60
34 23 28
34 24 35
34 25 9
34 26 51
34 27 91
34 28 7
34 29 67
34 30 24
34 31 29
34 32 1
34 33 85
35 0 79
35 1 26
35 2 54
35 3 62
35 4 22
35 5 46
35 6 100
35 7 24
35 8 53
35 9 21
35 10 45
35 11 59
35 12 70
35 13 71
35 14 3
35 15 44
35 16 26
35 17 72
35 18 33
35 19 35
35 20 49
35 21 64
35 22 5
35 23 77
35 24 13
35 25 72
35 26 96
35 27 80
35 28 13
35 29 77
35 30 83
35 31 32
35 32 2
35 33 57
35 34 88
36 0 71
36 1 65
36 2 87
36 3 96
36 4 31
36 5 60
36 6 80
36 7 43
36 8 26
36 9 50
36 10 79
36 11 57
36 12 52
36 13 84
36 14 66
36 15 87
36 16 4
36 17 29
36 18 27
36 19 53
36 20 46
36 21 45
36 22 90
36 23 14
36 24 91
36 25 59
36 26 35
36 27 31
36 28 59
36 29 82
36 30 32
36 31 61
36 32 31
36 33 60
36 34 70
36 35 31
37 0 23
37 1 88
37 2 62
37 3 53
37 4 36
37 5 87
37 6 58
37 7 98
37 8 61
37 9 47
37 10 98
37 11 40
37 12 47
37 13 85
37 14 72
37 15 22
37 16 56
37 17 60
37 18 93
37 19 13
37 20 75
37 21 57
37 22 77
37 23 70
37 24 36
37 25 21
37 26 100
37 27 8
37 28 90
37 29 8
37 30 76
37 31 44
37 32 20
37 33 88
37 34 63
37 35 80
37 36 92
38 0 6
38 1 10
38 2 25
38 3 83
38 4 99
38 5 85
38 6 84
38 7 25
38 8 15
38 9 56
38 10 54
38 11 79
38 12 84
38 13 18
38 14 12
38 15 83
38 16 47
38 17 78
38 18 87
38 19 87
38 20 23
38 21 43
38 22 37
38 23 46
38 24 90
38 25 84
38 26 91
38 27 17
38 28 99
38 29 61
38 30 16
38 31 19
38 32 51
38 33 30
38 34 22
38 35 25
38 36 99
38 37 73
39 0 8
39 1 98
39 2 70
39 3 27
39 4 32
39 5 3
39 6 4
39 7 82
39 8 38
39 9 37
39 10 59
39 11 2
39 12 68
39 13 78
39 14 36
39 15 70
39 16 77
39 17 39
39 18 11
39 19 60
39 20 90
39 21 72
39 22 90
39 23 7
39 24 83
39 25 56
39 26 22
39 27 98
39 28 88
39 29 84
39 30 18
39 31 33
39 32 39
39 33 10
39 34 93
39 35 17
39 36 19
39 37 31
39 38 4
40 0 70
40 1 64
40 2 18
40 3 52
40 4 94
40 5 40
40 6 7
40 7 91
40 8 8
40 9 15
40 10 43
40 11 39
40 12 50
40 13 60
40 14 100
40 15 98
40 16 18
40 17 67
40 18 49
40 19 19
40 20 71
40 21 86
40 22 34
40 23 83
40 24 46
40 25 83
40 26 84
40 27 64
40 28 32
40 29 99
40 30 65
40 31 9
40 32 29
40 33 52
40 34 56
40 35 54
40 36 71
40 37 11
40 38 98
40 39 44
41 0 91
41 1 36
41 2 51
41 3 49
41 4 68
41 5 60
41 6 65
41 7 68
41 8 66
41 9 67
41 10 37
41 11 85
41 12 74
41 13 80
41 14 21
41 15 15
41 16 95
41 17 64
41 18 9
41 19 36
41 20 43
41 21 16
41 22 100
41 23 22
41 24 53
41 25 97
41 26 24
41 27 1
41 28 11
41 29 11
41 30 90
41 31 16
41 32 52
41 33 64
41 34 73
41 35 58
41 36 88
41 37 31
41 38 66
41 39 96
41 40 70
42 0 30
42 1 47
42 2 38
42 3 88
42 4 77
42 5 48
42 6 68
42 7 60
42 8 68
42 9 36
42 10 78
42 11 74
42 12 20
42 13 13
42 14 68
42 15 81
42 16 58
42 17 24
42 18 84
42 19 46
42 20 32
42 21 24
42 22 33
42 23 11
42 24 4
42 25 21
42 26 70
42 27 33
42 28 40
42 29 30
42 30 72
42 31 84
42 32 93
42 33 80
42 34 20
42 35 41
42 36 65
42 37 70
42 38 77
42 39 2
42 40 78
42 41 62
43 0 14
43 1 97
43 2 2
43 3 53
43 4 31
43 5 83
43 6 10
43 7 82
43 8 80
43 9 50
43 10 71
43 11 40
43 12 67
43 13 71
43 14 81
43 15 2
43 16 17
43 17 70
43 18 12
43 19 2
43 20 12
43 21 90
43 22 24
43 23 8
43 24 35
43 25 1
43 26 57
43 27 83
43 28 88
43 29 61
43 30 22
43 31 26
43 32 66
43 33 19
43 34 35
43 35 35
43 36 100
43 37 51
43 38 76
43 39 35
43 40 2
43 41 32
43 42 66
44 0 64
44 1 79
44 2 3
44 3 83
44 4 9
44 5 96
44 6 94
44 7 81
44 8 37
44 9 9
44 10 89
44 11 63
44 12 58
44 13 87
44 14 66
44 15 29
44 16 13
44 17 8
44 18 37
44 19 6
44 20 98
44 21 93
44 22 73
44 23 19
44 24 27
44 25 4
44 26 90
44 27 73
44 28 24
44 29 34
44 30 24
44 31 41
44 32 97
44 33 56
44 34 39
44 35 98
44 36 11
44 37 13
44 38 26
44 39 21
44 40 91
44 41 65
44 42 90
44 43 62
45 0 6
45 1 24
45 2 51
45 3 63
45 4 12
45 5 41
45 6 91
45 7 62
45 8 67
45 9 32
45 10 11
45 11 19
45 12 43
45 13 56
45 14 9
45 15 47
45 16 85
45 17 73
45 18 75
45 19 46
45 20 10
45 21 53
45 22 63
45 23 57
45 24 41
45 25 21
45 26 96
45 27 96
45 28 8
45 29 38
45 30 98
45 31 25
45 32 69
45 33 78
45 34 85
45 35 85
45 36 42
45 37 29
45 38 29
45 39 81
45 40 37
45 41 39
45 42 94
45 43 2
45 44 31
46 0 93
46 1 13
46 2 21
46 3 35
46 4 70
46 5 39
46 6 94
46 7 31
46 8 35
46 9 1
46 10 76
46 11 93
46 12 62
46 13 39
46 14 91
46 15 13
46 16 79
46 17 13
46 18 52
46 19 92
46 20 4
46 21 95
46 22 8
46 23 69
46 24 93
46 25 94
46 26 61
46 27 11
46 28 27
46 29 78
46 30 85
46 31 68
46 32 14
46 33 90
46 34 29
46 35 70
46 36 69
46 37 66
46 38 7
46 39 38
46 40 16
46 41 11
46 42 93
46 43 6
46 44 8
46 45 86
47 0 61
47 1 6
47 2 74
47 3 13
47 4 73
47 5 40
47 6 22
47 7 2
47 8 71
47 9 55
47 10 76
47 11 58
47 12 43
47 13 87
47 14 12
47 15 13
47 16 70
47 17 45
47 18 26
47 19 5
47 20 61
47 21 50
47 22 51
47 23 94
47 24 53
47 25 47
47 26 99
47 27 76
47 28 10
47 29 59
47 30 3
47 31 50
47 32 67
47 33 44
47 34 83
47 35 45
47 36 95
47 37 92
47 38 58
47 39 8
47 40 81
47 41 45
47 42 78
47 43 10
47 44 51
47 45 47
47 46 49
48 0 25
48 1 86
48 2 62
48 3 80
48 4 89
48 5 1
48 6 92
48 7 72
48 8 38
48 9 86
48 10 6
48 11 18
48 12 91
48 13 36
48 14 58
48 15 98
48 16 20
48 17 17
48 18 41
48 19 83
48 20 21
48 21 42
48 22 26
48 23 84
48 24 89
48 25 51
48 26 60
48 27 2
48 28 51
48 29 36
48 30 47
48 31 73
48 32 14
48 33 31
48 34 18
48 35 13
48 36 29
48 37 69
48 38 59
48 39 5
48 40 81
48 41 90
48 42 83
48 43 81
48 44 58
48 45 25
48 46 31
48 47 98
49 0 52
49 1 8
49 2 54
49 3 7
49 4 3
49 5 89
49 6 12
49 7 56
49 8 83
49 9 45
49 10 89
49 11 92
49 12 80
49 13 16
49 14 8
49 15 43
49 16 39
49 17 11
49 18 99
49 19 90
49 20 61
49 21 61
49 22 52
49 23 77
49 24 66
49 25 17
49 26 57
49 27 3
49 28 71
49 29 17
49 30 15
49 31 99
49 32 58
49 33 65
49 34 71
49 35 85
49 36 98
49 37 12
49 38 5
49 39 60
49 40 84
49 41 14
49 42 74
49 43 75
49 44 86
49 45 14
49 46 5
49 47 78
49 48 12
